\ Model TSP Problem
\ LP format - for model browsing. Use MPS format to capture full model detail.
Minimize
  16.1245154965971 X[0,1,0] + 16.1245154965971 X[0,1,1]
   + 16.1245154965971 X[0,1,2] + 16.1245154965971 X[0,1,3]
   + 15.13274595042156 X[0,2,0] + 15.13274595042156 X[0,2,1]
   + 15.13274595042156 X[0,2,2] + 15.13274595042156 X[0,2,3] + 19 X[0,3,0]
   + 19 X[0,3,1] + 19 X[0,3,2] + 19 X[0,3,3] + 18.11077027627483 X[0,4,0]
   + 18.11077027627483 X[0,4,1] + 18.11077027627483 X[0,4,2]
   + 18.11077027627483 X[0,4,3] + 20.09975124224178 X[0,5,0]
   + 20.09975124224178 X[0,5,1] + 20.09975124224178 X[0,5,2]
   + 20.09975124224178 X[0,5,3] + 1.414213562373095 X[0,6,0]
   + 1.414213562373095 X[0,6,1] + 1.414213562373095 X[0,6,2]
   + 1.414213562373095 X[0,6,3] + 16.1245154965971 X[1,0,0]
   + 16.1245154965971 X[1,0,1] + 16.1245154965971 X[1,0,2]
   + 16.1245154965971 X[1,0,3] + X[1,2,0] + X[1,2,1] + X[1,2,2] + X[1,2,3]
   + 3.605551275463989 X[1,3,0] + 3.605551275463989 X[1,3,1]
   + 3.605551275463989 X[1,3,2] + 3.605551275463989 X[1,3,3]
   + 4.47213595499958 X[1,4,0] + 4.47213595499958 X[1,4,1]
   + 4.47213595499958 X[1,4,2] + 4.47213595499958 X[1,4,3]
   + 5.656854249492381 X[1,5,0] + 5.656854249492381 X[1,5,1]
   + 5.656854249492381 X[1,5,2] + 5.656854249492381 X[1,5,3]
   + 15.03329637837291 X[1,6,0] + 15.03329637837291 X[1,6,1]
   + 15.03329637837291 X[1,6,2] + 15.03329637837291 X[1,6,3]
   + 15.13274595042156 X[2,0,0] + 15.13274595042156 X[2,0,1]
   + 15.13274595042156 X[2,0,2] + 15.13274595042156 X[2,0,3] + X[2,1,0]
   + X[2,1,1] + X[2,1,2] + X[2,1,3] + 4.47213595499958 X[2,3,0]
   + 4.47213595499958 X[2,3,1] + 4.47213595499958 X[2,3,2]
   + 4.47213595499958 X[2,3,3] + 5 X[2,4,0] + 5 X[2,4,1] + 5 X[2,4,2]
   + 5 X[2,4,3] + 6.403124237432849 X[2,5,0] + 6.403124237432849 X[2,5,1]
   + 6.403124237432849 X[2,5,2] + 6.403124237432849 X[2,5,3]
   + 14.0356688476182 X[2,6,0] + 14.0356688476182 X[2,6,1]
   + 14.0356688476182 X[2,6,2] + 14.0356688476182 X[2,6,3] + 19 X[3,0,0]
   + 19 X[3,0,1] + 19 X[3,0,2] + 19 X[3,0,3] + 3.605551275463989 X[3,1,0]
   + 3.605551275463989 X[3,1,1] + 3.605551275463989 X[3,1,2]
   + 3.605551275463989 X[3,1,3] + 4.47213595499958 X[3,2,0]
   + 4.47213595499958 X[3,2,1] + 4.47213595499958 X[3,2,2]
   + 4.47213595499958 X[3,2,3] + 2.23606797749979 X[3,4,0]
   + 2.23606797749979 X[3,4,1] + 2.23606797749979 X[3,4,2]
   + 2.23606797749979 X[3,4,3] + 2.23606797749979 X[3,5,0]
   + 2.23606797749979 X[3,5,1] + 2.23606797749979 X[3,5,2]
   + 2.23606797749979 X[3,5,3] + 18.02775637731995 X[3,6,0]
   + 18.02775637731995 X[3,6,1] + 18.02775637731995 X[3,6,2]
   + 18.02775637731995 X[3,6,3] + 18.11077027627483 X[4,0,0]
   + 18.11077027627483 X[4,0,1] + 18.11077027627483 X[4,0,2]
   + 18.11077027627483 X[4,0,3] + 4.47213595499958 X[4,1,0]
   + 4.47213595499958 X[4,1,1] + 4.47213595499958 X[4,1,2]
   + 4.47213595499958 X[4,1,3] + 5 X[4,2,0] + 5 X[4,2,1] + 5 X[4,2,2]
   + 5 X[4,2,3] + 2.23606797749979 X[4,3,0] + 2.23606797749979 X[4,3,1]
   + 2.23606797749979 X[4,3,2] + 2.23606797749979 X[4,3,3] + 2 X[4,5,0]
   + 2 X[4,5,1] + 2 X[4,5,2] + 2 X[4,5,3] + 17.26267650163207 X[4,6,0]
   + 17.26267650163207 X[4,6,1] + 17.26267650163207 X[4,6,2]
   + 17.26267650163207 X[4,6,3] + 20.09975124224178 X[5,0,0]
   + 20.09975124224178 X[5,0,1] + 20.09975124224178 X[5,0,2]
   + 20.09975124224178 X[5,0,3] + 5.656854249492381 X[5,1,0]
   + 5.656854249492381 X[5,1,1] + 5.656854249492381 X[5,1,2]
   + 5.656854249492381 X[5,1,3] + 6.403124237432849 X[5,2,0]
   + 6.403124237432849 X[5,2,1] + 6.403124237432849 X[5,2,2]
   + 6.403124237432849 X[5,2,3] + 2.23606797749979 X[5,3,0]
   + 2.23606797749979 X[5,3,1] + 2.23606797749979 X[5,3,2]
   + 2.23606797749979 X[5,3,3] + 2 X[5,4,0] + 2 X[5,4,1] + 2 X[5,4,2]
   + 2 X[5,4,3] + 19.23538406167134 X[5,6,0] + 19.23538406167134 X[5,6,1]
   + 19.23538406167134 X[5,6,2] + 19.23538406167134 X[5,6,3]
   + 1.414213562373095 X[6,0,0] + 1.414213562373095 X[6,0,1]
   + 1.414213562373095 X[6,0,2] + 1.414213562373095 X[6,0,3]
   + 15.03329637837291 X[6,1,0] + 15.03329637837291 X[6,1,1]
   + 15.03329637837291 X[6,1,2] + 15.03329637837291 X[6,1,3]
   + 14.0356688476182 X[6,2,0] + 14.0356688476182 X[6,2,1]
   + 14.0356688476182 X[6,2,2] + 14.0356688476182 X[6,2,3]
   + 18.02775637731995 X[6,3,0] + 18.02775637731995 X[6,3,1]
   + 18.02775637731995 X[6,3,2] + 18.02775637731995 X[6,3,3]
   + 17.26267650163207 X[6,4,0] + 17.26267650163207 X[6,4,1]
   + 17.26267650163207 X[6,4,2] + 17.26267650163207 X[6,4,3]
   + 19.23538406167134 X[6,5,0] + 19.23538406167134 X[6,5,1]
   + 19.23538406167134 X[6,5,2] + 19.23538406167134 X[6,5,3]
Subject To
 R0: X[0,0,0] + X[0,0,1] + X[0,0,2] + X[0,0,3] + X[1,0,0] + X[1,0,1]
   + X[1,0,2] + X[1,0,3] + X[2,0,0] + X[2,0,1] + X[2,0,2] + X[2,0,3]
   + X[3,0,0] + X[3,0,1] + X[3,0,2] + X[3,0,3] + X[4,0,0] + X[4,0,1]
   + X[4,0,2] + X[4,0,3] + X[5,0,0] + X[5,0,1] + X[5,0,2] + X[5,0,3]
   + X[6,0,0] + X[6,0,1] + X[6,0,2] + X[6,0,3] = 1
 R1: X[0,1,0] + X[0,1,1] + X[0,1,2] + X[0,1,3] + X[1,1,0] + X[1,1,1]
   + X[1,1,2] + X[1,1,3] + X[2,1,0] + X[2,1,1] + X[2,1,2] + X[2,1,3]
   + X[3,1,0] + X[3,1,1] + X[3,1,2] + X[3,1,3] + X[4,1,0] + X[4,1,1]
   + X[4,1,2] + X[4,1,3] + X[5,1,0] + X[5,1,1] + X[5,1,2] + X[5,1,3]
   + X[6,1,0] + X[6,1,1] + X[6,1,2] + X[6,1,3] = 1
 R2: X[0,2,0] + X[0,2,1] + X[0,2,2] + X[0,2,3] + X[1,2,0] + X[1,2,1]
   + X[1,2,2] + X[1,2,3] + X[2,2,0] + X[2,2,1] + X[2,2,2] + X[2,2,3]
   + X[3,2,0] + X[3,2,1] + X[3,2,2] + X[3,2,3] + X[4,2,0] + X[4,2,1]
   + X[4,2,2] + X[4,2,3] + X[5,2,0] + X[5,2,1] + X[5,2,2] + X[5,2,3]
   + X[6,2,0] + X[6,2,1] + X[6,2,2] + X[6,2,3] = 1
 R3: X[0,3,0] + X[0,3,1] + X[0,3,2] + X[0,3,3] + X[1,3,0] + X[1,3,1]
   + X[1,3,2] + X[1,3,3] + X[2,3,0] + X[2,3,1] + X[2,3,2] + X[2,3,3]
   + X[3,3,0] + X[3,3,1] + X[3,3,2] + X[3,3,3] + X[4,3,0] + X[4,3,1]
   + X[4,3,2] + X[4,3,3] + X[5,3,0] + X[5,3,1] + X[5,3,2] + X[5,3,3]
   + X[6,3,0] + X[6,3,1] + X[6,3,2] + X[6,3,3] = 1
 R4: X[0,4,0] + X[0,4,1] + X[0,4,2] + X[0,4,3] + X[1,4,0] + X[1,4,1]
   + X[1,4,2] + X[1,4,3] + X[2,4,0] + X[2,4,1] + X[2,4,2] + X[2,4,3]
   + X[3,4,0] + X[3,4,1] + X[3,4,2] + X[3,4,3] + X[4,4,0] + X[4,4,1]
   + X[4,4,2] + X[4,4,3] + X[5,4,0] + X[5,4,1] + X[5,4,2] + X[5,4,3]
   + X[6,4,0] + X[6,4,1] + X[6,4,2] + X[6,4,3] = 1
 R5: X[0,5,0] + X[0,5,1] + X[0,5,2] + X[0,5,3] + X[1,5,0] + X[1,5,1]
   + X[1,5,2] + X[1,5,3] + X[2,5,0] + X[2,5,1] + X[2,5,2] + X[2,5,3]
   + X[3,5,0] + X[3,5,1] + X[3,5,2] + X[3,5,3] + X[4,5,0] + X[4,5,1]
   + X[4,5,2] + X[4,5,3] + X[5,5,0] + X[5,5,1] + X[5,5,2] + X[5,5,3]
   + X[6,5,0] + X[6,5,1] + X[6,5,2] + X[6,5,3] = 1
 R6: X[0,6,0] + X[0,6,1] + X[0,6,2] + X[0,6,3] + X[1,6,0] + X[1,6,1]
   + X[1,6,2] + X[1,6,3] + X[2,6,0] + X[2,6,1] + X[2,6,2] + X[2,6,3]
   + X[3,6,0] + X[3,6,1] + X[3,6,2] + X[3,6,3] + X[4,6,0] + X[4,6,1]
   + X[4,6,2] + X[4,6,3] + X[5,6,0] + X[5,6,1] + X[5,6,2] + X[5,6,3]
   + X[6,6,0] + X[6,6,1] + X[6,6,2] + X[6,6,3] = 1
 R7: X[0,0,0] + X[0,0,1] + X[0,0,2] + X[0,0,3] + X[0,1,0] + X[0,1,1]
   + X[0,1,2] + X[0,1,3] + X[0,2,0] + X[0,2,1] + X[0,2,2] + X[0,2,3]
   + X[0,3,0] + X[0,3,1] + X[0,3,2] + X[0,3,3] + X[0,4,0] + X[0,4,1]
   + X[0,4,2] + X[0,4,3] + X[0,5,0] + X[0,5,1] + X[0,5,2] + X[0,5,3]
   + X[0,6,0] + X[0,6,1] + X[0,6,2] + X[0,6,3] = 1
 R8: X[1,0,0] + X[1,0,1] + X[1,0,2] + X[1,0,3] + X[1,1,0] + X[1,1,1]
   + X[1,1,2] + X[1,1,3] + X[1,2,0] + X[1,2,1] + X[1,2,2] + X[1,2,3]
   + X[1,3,0] + X[1,3,1] + X[1,3,2] + X[1,3,3] + X[1,4,0] + X[1,4,1]
   + X[1,4,2] + X[1,4,3] + X[1,5,0] + X[1,5,1] + X[1,5,2] + X[1,5,3]
   + X[1,6,0] + X[1,6,1] + X[1,6,2] + X[1,6,3] = 1
 R9: X[2,0,0] + X[2,0,1] + X[2,0,2] + X[2,0,3] + X[2,1,0] + X[2,1,1]
   + X[2,1,2] + X[2,1,3] + X[2,2,0] + X[2,2,1] + X[2,2,2] + X[2,2,3]
   + X[2,3,0] + X[2,3,1] + X[2,3,2] + X[2,3,3] + X[2,4,0] + X[2,4,1]
   + X[2,4,2] + X[2,4,3] + X[2,5,0] + X[2,5,1] + X[2,5,2] + X[2,5,3]
   + X[2,6,0] + X[2,6,1] + X[2,6,2] + X[2,6,3] = 1
 R10: X[3,0,0] + X[3,0,1] + X[3,0,2] + X[3,0,3] + X[3,1,0] + X[3,1,1]
   + X[3,1,2] + X[3,1,3] + X[3,2,0] + X[3,2,1] + X[3,2,2] + X[3,2,3]
   + X[3,3,0] + X[3,3,1] + X[3,3,2] + X[3,3,3] + X[3,4,0] + X[3,4,1]
   + X[3,4,2] + X[3,4,3] + X[3,5,0] + X[3,5,1] + X[3,5,2] + X[3,5,3]
   + X[3,6,0] + X[3,6,1] + X[3,6,2] + X[3,6,3] = 1
 R11: X[4,0,0] + X[4,0,1] + X[4,0,2] + X[4,0,3] + X[4,1,0] + X[4,1,1]
   + X[4,1,2] + X[4,1,3] + X[4,2,0] + X[4,2,1] + X[4,2,2] + X[4,2,3]
   + X[4,3,0] + X[4,3,1] + X[4,3,2] + X[4,3,3] + X[4,4,0] + X[4,4,1]
   + X[4,4,2] + X[4,4,3] + X[4,5,0] + X[4,5,1] + X[4,5,2] + X[4,5,3]
   + X[4,6,0] + X[4,6,1] + X[4,6,2] + X[4,6,3] = 1
 R12: X[5,0,0] + X[5,0,1] + X[5,0,2] + X[5,0,3] + X[5,1,0] + X[5,1,1]
   + X[5,1,2] + X[5,1,3] + X[5,2,0] + X[5,2,1] + X[5,2,2] + X[5,2,3]
   + X[5,3,0] + X[5,3,1] + X[5,3,2] + X[5,3,3] + X[5,4,0] + X[5,4,1]
   + X[5,4,2] + X[5,4,3] + X[5,5,0] + X[5,5,1] + X[5,5,2] + X[5,5,3]
   + X[5,6,0] + X[5,6,1] + X[5,6,2] + X[5,6,3] = 1
 R13: X[6,0,0] + X[6,0,1] + X[6,0,2] + X[6,0,3] + X[6,1,0] + X[6,1,1]
   + X[6,1,2] + X[6,1,3] + X[6,2,0] + X[6,2,1] + X[6,2,2] + X[6,2,3]
   + X[6,3,0] + X[6,3,1] + X[6,3,2] + X[6,3,3] + X[6,4,0] + X[6,4,1]
   + X[6,4,2] + X[6,4,3] + X[6,5,0] + X[6,5,1] + X[6,5,2] + X[6,5,3]
   + X[6,6,0] + X[6,6,1] + X[6,6,2] + X[6,6,3] = 1
 R14: T[0] >= 0
 R15: T[0] <= 1236
 R16: - 100000.0001 X[0,1,0] - T[0] + T[1] >= -99983.8755845034
 R17: - 100000.0001 X[0,1,1] - T[0] + T[1] >= -99983.8755845034
 R18: - 100000.0001 X[0,1,2] - T[0] + T[1] >= -99983.8755845034
 R19: - 100000.0001 X[0,1,3] - T[0] + T[1] >= -99983.8755845034
 R20: - 100000.0001 X[0,2,0] - T[0] + T[2] >= -99984.86735404958
 R21: - 100000.0001 X[0,2,1] - T[0] + T[2] >= -99984.86735404958
 R22: - 100000.0001 X[0,2,2] - T[0] + T[2] >= -99984.86735404958
 R23: - 100000.0001 X[0,2,3] - T[0] + T[2] >= -99984.86735404958
 R24: - 100000.0001 X[0,3,0] - T[0] + T[3] >= -99981.0001
 R25: - 100000.0001 X[0,3,1] - T[0] + T[3] >= -99981.0001
 R26: - 100000.0001 X[0,3,2] - T[0] + T[3] >= -99981.0001
 R27: - 100000.0001 X[0,3,3] - T[0] + T[3] >= -99981.0001
 R28: - 100000.0001 X[0,4,0] - T[0] + T[4] >= -99981.88932972372
 R29: - 100000.0001 X[0,4,1] - T[0] + T[4] >= -99981.88932972372
 R30: - 100000.0001 X[0,4,2] - T[0] + T[4] >= -99981.88932972372
 R31: - 100000.0001 X[0,4,3] - T[0] + T[4] >= -99981.88932972372
 R32: - 100000.0001 X[0,5,0] - T[0] + T[5] >= -99979.90034875776
 R33: - 100000.0001 X[0,5,1] - T[0] + T[5] >= -99979.90034875776
 R34: - 100000.0001 X[0,5,2] - T[0] + T[5] >= -99979.90034875776
 R35: - 100000.0001 X[0,5,3] - T[0] + T[5] >= -99979.90034875776
 R36: - 100000.0001 X[0,6,0] - T[0] + T[6] >= -99998.58588643764
 R37: - 100000.0001 X[0,6,1] - T[0] + T[6] >= -99998.58588643764
 R38: - 100000.0001 X[0,6,2] - T[0] + T[6] >= -99998.58588643764
 R39: - 100000.0001 X[0,6,3] - T[0] + T[6] >= -99998.58588643764
 R40: T[1] >= 65
 R41: T[1] <= 146
 R42: - 100000.0001 X[1,1,0] >= -99910.0001
 R43: - 100000.0001 X[1,1,1] >= -99910.0001
 R44: - 100000.0001 X[1,1,2] >= -99910.0001
 R45: - 100000.0001 X[1,1,3] >= -99910.0001
 R46: - 100000.0001 X[1,2,0] - T[1] + T[2] >= -99909.0001
 R47: - 100000.0001 X[1,2,1] - T[1] + T[2] >= -99909.0001
 R48: - 100000.0001 X[1,2,2] - T[1] + T[2] >= -99909.0001
 R49: - 100000.0001 X[1,2,3] - T[1] + T[2] >= -99909.0001
 R50: - 100000.0001 X[1,3,0] - T[1] + T[3] >= -99906.39454872454
 R51: - 100000.0001 X[1,3,1] - T[1] + T[3] >= -99906.39454872454
 R52: - 100000.0001 X[1,3,2] - T[1] + T[3] >= -99906.39454872454
 R53: - 100000.0001 X[1,3,3] - T[1] + T[3] >= -99906.39454872454
 R54: - 100000.0001 X[1,4,0] - T[1] + T[4] >= -99905.527964045
 R55: - 100000.0001 X[1,4,1] - T[1] + T[4] >= -99905.527964045
 R56: - 100000.0001 X[1,4,2] - T[1] + T[4] >= -99905.527964045
 R57: - 100000.0001 X[1,4,3] - T[1] + T[4] >= -99905.527964045
 R58: - 100000.0001 X[1,5,0] - T[1] + T[5] >= -99904.34324575051
 R59: - 100000.0001 X[1,5,1] - T[1] + T[5] >= -99904.34324575051
 R60: - 100000.0001 X[1,5,2] - T[1] + T[5] >= -99904.34324575051
 R61: - 100000.0001 X[1,5,3] - T[1] + T[5] >= -99904.34324575051
 R62: - 100000.0001 X[1,6,0] - T[1] + T[6] >= -99894.96680362163
 R63: - 100000.0001 X[1,6,1] - T[1] + T[6] >= -99894.96680362163
 R64: - 100000.0001 X[1,6,2] - T[1] + T[6] >= -99894.96680362163
 R65: - 100000.0001 X[1,6,3] - T[1] + T[6] >= -99894.96680362163
 R66: T[2] >= 15
 R67: T[2] <= 67
 R68: - 100000.0001 X[2,1,0] + T[1] - T[2] >= -99909.0001
 R69: - 100000.0001 X[2,1,1] + T[1] - T[2] >= -99909.0001
 R70: - 100000.0001 X[2,1,2] + T[1] - T[2] >= -99909.0001
 R71: - 100000.0001 X[2,1,3] + T[1] - T[2] >= -99909.0001
 R72: - 100000.0001 X[2,2,0] >= -99910.0001
 R73: - 100000.0001 X[2,2,1] >= -99910.0001
 R74: - 100000.0001 X[2,2,2] >= -99910.0001
 R75: - 100000.0001 X[2,2,3] >= -99910.0001
 R76: - 100000.0001 X[2,3,0] - T[2] + T[3] >= -99905.527964045
 R77: - 100000.0001 X[2,3,1] - T[2] + T[3] >= -99905.527964045
 R78: - 100000.0001 X[2,3,2] - T[2] + T[3] >= -99905.527964045
 R79: - 100000.0001 X[2,3,3] - T[2] + T[3] >= -99905.527964045
 R80: - 100000.0001 X[2,4,0] - T[2] + T[4] >= -99905.0001
 R81: - 100000.0001 X[2,4,1] - T[2] + T[4] >= -99905.0001
 R82: - 100000.0001 X[2,4,2] - T[2] + T[4] >= -99905.0001
 R83: - 100000.0001 X[2,4,3] - T[2] + T[4] >= -99905.0001
 R84: - 100000.0001 X[2,5,0] - T[2] + T[5] >= -99903.59697576257
 R85: - 100000.0001 X[2,5,1] - T[2] + T[5] >= -99903.59697576257
 R86: - 100000.0001 X[2,5,2] - T[2] + T[5] >= -99903.59697576257
 R87: - 100000.0001 X[2,5,3] - T[2] + T[5] >= -99903.59697576257
 R88: - 100000.0001 X[2,6,0] - T[2] + T[6] >= -99895.96443115239
 R89: - 100000.0001 X[2,6,1] - T[2] + T[6] >= -99895.96443115239
 R90: - 100000.0001 X[2,6,2] - T[2] + T[6] >= -99895.96443115239
 R91: - 100000.0001 X[2,6,3] - T[2] + T[6] >= -99895.96443115239
 R92: T[3] >= 621
 R93: T[3] <= 702
 R94: - 100000.0001 X[3,1,0] + T[1] - T[3] >= -99906.39454872454
 R95: - 100000.0001 X[3,1,1] + T[1] - T[3] >= -99906.39454872454
 R96: - 100000.0001 X[3,1,2] + T[1] - T[3] >= -99906.39454872454
 R97: - 100000.0001 X[3,1,3] + T[1] - T[3] >= -99906.39454872454
 R98: - 100000.0001 X[3,2,0] + T[2] - T[3] >= -99905.527964045
 R99: - 100000.0001 X[3,2,1] + T[2] - T[3] >= -99905.527964045
 R100: - 100000.0001 X[3,2,2] + T[2] - T[3] >= -99905.527964045
 R101: - 100000.0001 X[3,2,3] + T[2] - T[3] >= -99905.527964045
 R102: - 100000.0001 X[3,3,0] >= -99910.0001
 R103: - 100000.0001 X[3,3,1] >= -99910.0001
 R104: - 100000.0001 X[3,3,2] >= -99910.0001
 R105: - 100000.0001 X[3,3,3] >= -99910.0001
 R106: - 100000.0001 X[3,4,0] - T[3] + T[4] >= -99907.7640320225
 R107: - 100000.0001 X[3,4,1] - T[3] + T[4] >= -99907.7640320225
 R108: - 100000.0001 X[3,4,2] - T[3] + T[4] >= -99907.7640320225
 R109: - 100000.0001 X[3,4,3] - T[3] + T[4] >= -99907.7640320225
 R110: - 100000.0001 X[3,5,0] - T[3] + T[5] >= -99907.7640320225
 R111: - 100000.0001 X[3,5,1] - T[3] + T[5] >= -99907.7640320225
 R112: - 100000.0001 X[3,5,2] - T[3] + T[5] >= -99907.7640320225
 R113: - 100000.0001 X[3,5,3] - T[3] + T[5] >= -99907.7640320225
 R114: - 100000.0001 X[3,6,0] - T[3] + T[6] >= -99891.97234362268
 R115: - 100000.0001 X[3,6,1] - T[3] + T[6] >= -99891.97234362268
 R116: - 100000.0001 X[3,6,2] - T[3] + T[6] >= -99891.97234362268
 R117: - 100000.0001 X[3,6,3] - T[3] + T[6] >= -99891.97234362268
 R118: T[4] >= 255
 R119: T[4] <= 324
 R120: - 100000.0001 X[4,1,0] + T[1] - T[4] >= -99905.527964045
 R121: - 100000.0001 X[4,1,1] + T[1] - T[4] >= -99905.527964045
 R122: - 100000.0001 X[4,1,2] + T[1] - T[4] >= -99905.527964045
 R123: - 100000.0001 X[4,1,3] + T[1] - T[4] >= -99905.527964045
 R124: - 100000.0001 X[4,2,0] + T[2] - T[4] >= -99905.0001
 R125: - 100000.0001 X[4,2,1] + T[2] - T[4] >= -99905.0001
 R126: - 100000.0001 X[4,2,2] + T[2] - T[4] >= -99905.0001
 R127: - 100000.0001 X[4,2,3] + T[2] - T[4] >= -99905.0001
 R128: - 100000.0001 X[4,3,0] + T[3] - T[4] >= -99907.7640320225
 R129: - 100000.0001 X[4,3,1] + T[3] - T[4] >= -99907.7640320225
 R130: - 100000.0001 X[4,3,2] + T[3] - T[4] >= -99907.7640320225
 R131: - 100000.0001 X[4,3,3] + T[3] - T[4] >= -99907.7640320225
 R132: - 100000.0001 X[4,4,0] >= -99910.0001
 R133: - 100000.0001 X[4,4,1] >= -99910.0001
 R134: - 100000.0001 X[4,4,2] >= -99910.0001
 R135: - 100000.0001 X[4,4,3] >= -99910.0001
 R136: - 100000.0001 X[4,5,0] - T[4] + T[5] >= -99908.0001
 R137: - 100000.0001 X[4,5,1] - T[4] + T[5] >= -99908.0001
 R138: - 100000.0001 X[4,5,2] - T[4] + T[5] >= -99908.0001
 R139: - 100000.0001 X[4,5,3] - T[4] + T[5] >= -99908.0001
 R140: - 100000.0001 X[4,6,0] - T[4] + T[6] >= -99892.73742349837
 R141: - 100000.0001 X[4,6,1] - T[4] + T[6] >= -99892.73742349837
 R142: - 100000.0001 X[4,6,2] - T[4] + T[6] >= -99892.73742349837
 R143: - 100000.0001 X[4,6,3] - T[4] + T[6] >= -99892.73742349837
 R144: T[5] >= 534
 R145: T[5] <= 605
 R146: - 100000.0001 X[5,1,0] + T[1] - T[5] >= -99904.34324575051
 R147: - 100000.0001 X[5,1,1] + T[1] - T[5] >= -99904.34324575051
 R148: - 100000.0001 X[5,1,2] + T[1] - T[5] >= -99904.34324575051
 R149: - 100000.0001 X[5,1,3] + T[1] - T[5] >= -99904.34324575051
 R150: - 100000.0001 X[5,2,0] + T[2] - T[5] >= -99903.59697576257
 R151: - 100000.0001 X[5,2,1] + T[2] - T[5] >= -99903.59697576257
 R152: - 100000.0001 X[5,2,2] + T[2] - T[5] >= -99903.59697576257
 R153: - 100000.0001 X[5,2,3] + T[2] - T[5] >= -99903.59697576257
 R154: - 100000.0001 X[5,3,0] + T[3] - T[5] >= -99907.7640320225
 R155: - 100000.0001 X[5,3,1] + T[3] - T[5] >= -99907.7640320225
 R156: - 100000.0001 X[5,3,2] + T[3] - T[5] >= -99907.7640320225
 R157: - 100000.0001 X[5,3,3] + T[3] - T[5] >= -99907.7640320225
 R158: - 100000.0001 X[5,4,0] + T[4] - T[5] >= -99908.0001
 R159: - 100000.0001 X[5,4,1] + T[4] - T[5] >= -99908.0001
 R160: - 100000.0001 X[5,4,2] + T[4] - T[5] >= -99908.0001
 R161: - 100000.0001 X[5,4,3] + T[4] - T[5] >= -99908.0001
 R162: - 100000.0001 X[5,5,0] >= -99910.0001
 R163: - 100000.0001 X[5,5,1] >= -99910.0001
 R164: - 100000.0001 X[5,5,2] >= -99910.0001
 R165: - 100000.0001 X[5,5,3] >= -99910.0001
 R166: - 100000.0001 X[5,6,0] - T[5] + T[6] >= -99890.76471593833
 R167: - 100000.0001 X[5,6,1] - T[5] + T[6] >= -99890.76471593833
 R168: - 100000.0001 X[5,6,2] - T[5] + T[6] >= -99890.76471593833
 R169: - 100000.0001 X[5,6,3] - T[5] + T[6] >= -99890.76471593833
 R170: T[6] >= 448
 R171: T[6] <= 505
 R172: - 100000.0001 X[6,1,0] + T[1] - T[6] >= -99894.96680362163
 R173: - 100000.0001 X[6,1,1] + T[1] - T[6] >= -99894.96680362163
 R174: - 100000.0001 X[6,1,2] + T[1] - T[6] >= -99894.96680362163
 R175: - 100000.0001 X[6,1,3] + T[1] - T[6] >= -99894.96680362163
 R176: - 100000.0001 X[6,2,0] + T[2] - T[6] >= -99895.96443115239
 R177: - 100000.0001 X[6,2,1] + T[2] - T[6] >= -99895.96443115239
 R178: - 100000.0001 X[6,2,2] + T[2] - T[6] >= -99895.96443115239
 R179: - 100000.0001 X[6,2,3] + T[2] - T[6] >= -99895.96443115239
 R180: - 100000.0001 X[6,3,0] + T[3] - T[6] >= -99891.97234362268
 R181: - 100000.0001 X[6,3,1] + T[3] - T[6] >= -99891.97234362268
 R182: - 100000.0001 X[6,3,2] + T[3] - T[6] >= -99891.97234362268
 R183: - 100000.0001 X[6,3,3] + T[3] - T[6] >= -99891.97234362268
 R184: - 100000.0001 X[6,4,0] + T[4] - T[6] >= -99892.73742349837
 R185: - 100000.0001 X[6,4,1] + T[4] - T[6] >= -99892.73742349837
 R186: - 100000.0001 X[6,4,2] + T[4] - T[6] >= -99892.73742349837
 R187: - 100000.0001 X[6,4,3] + T[4] - T[6] >= -99892.73742349837
 R188: - 100000.0001 X[6,5,0] + T[5] - T[6] >= -99890.76471593833
 R189: - 100000.0001 X[6,5,1] + T[5] - T[6] >= -99890.76471593833
 R190: - 100000.0001 X[6,5,2] + T[5] - T[6] >= -99890.76471593833
 R191: - 100000.0001 X[6,5,3] + T[5] - T[6] >= -99890.76471593833
 R192: - 100000.0001 X[6,6,0] >= -99910.0001
 R193: - 100000.0001 X[6,6,1] >= -99910.0001
 R194: - 100000.0001 X[6,6,2] >= -99910.0001
 R195: - 100000.0001 X[6,6,3] >= -99910.0001
 R196: Z[6,0] + Z[6,1] + Z[6,2] + Z[6,3] = 1
 R197: Z[6,0] + Z[6,1] + Z[6,2] + Z[6,3] = 1
 R198: Z[6,0] + Z[6,1] + Z[6,2] + Z[6,3] = 1
 R199: Z[6,0] + Z[6,1] + Z[6,2] + Z[6,3] = 1
 R200: Z[6,0] + Z[6,1] + Z[6,2] + Z[6,3] = 1
 R201: Z[6,0] + Z[6,1] + Z[6,2] + Z[6,3] = 1
 R202: Z[0,0] + Z[0,1] + Z[0,2] + Z[0,3] = 4
 R203: 30 Z[6,0] + 30 Z[6,1] + 30 Z[6,2] + 30 Z[6,3] <= 30
 R204: 30 Z[6,0] + 30 Z[6,1] + 30 Z[6,2] + 30 Z[6,3] <= 30
 R205: 30 Z[6,0] + 30 Z[6,1] + 30 Z[6,2] + 30 Z[6,3] <= 30
 R206: 30 Z[6,0] + 30 Z[6,1] + 30 Z[6,2] + 30 Z[6,3] <= 30
 R207: 30 Z[6,0] + 30 Z[6,1] + 30 Z[6,2] + 30 Z[6,3] <= 30
 R208: 30 Z[6,0] + 30 Z[6,1] + 30 Z[6,2] + 30 Z[6,3] <= 30
 R209: 30 Z[6,0] + 30 Z[6,1] + 30 Z[6,2] + 30 Z[6,3] <= 30
 R210: X[0,1,0] - X[1,0,0] - X[1,2,0] - X[1,3,0] - X[1,4,0] - X[1,5,0]
   - X[1,6,0] + X[2,1,0] + X[3,1,0] + X[4,1,0] + X[5,1,0] + X[6,1,0] = 0
 R211: X[0,1,1] - X[1,0,1] - X[1,2,1] - X[1,3,1] - X[1,4,1] - X[1,5,1]
   - X[1,6,1] + X[2,1,1] + X[3,1,1] + X[4,1,1] + X[5,1,1] + X[6,1,1] = 0
 R212: X[0,1,2] - X[1,0,2] - X[1,2,2] - X[1,3,2] - X[1,4,2] - X[1,5,2]
   - X[1,6,2] + X[2,1,2] + X[3,1,2] + X[4,1,2] + X[5,1,2] + X[6,1,2] = 0
 R213: X[0,1,3] - X[1,0,3] - X[1,2,3] - X[1,3,3] - X[1,4,3] - X[1,5,3]
   - X[1,6,3] + X[2,1,3] + X[3,1,3] + X[4,1,3] + X[5,1,3] + X[6,1,3] = 0
 R214: X[0,2,0] + X[1,2,0] - X[2,0,0] - X[2,1,0] - X[2,3,0] - X[2,4,0]
   - X[2,5,0] - X[2,6,0] + X[3,2,0] + X[4,2,0] + X[5,2,0] + X[6,2,0] = 0
 R215: X[0,2,1] + X[1,2,1] - X[2,0,1] - X[2,1,1] - X[2,3,1] - X[2,4,1]
   - X[2,5,1] - X[2,6,1] + X[3,2,1] + X[4,2,1] + X[5,2,1] + X[6,2,1] = 0
 R216: X[0,2,2] + X[1,2,2] - X[2,0,2] - X[2,1,2] - X[2,3,2] - X[2,4,2]
   - X[2,5,2] - X[2,6,2] + X[3,2,2] + X[4,2,2] + X[5,2,2] + X[6,2,2] = 0
 R217: X[0,2,3] + X[1,2,3] - X[2,0,3] - X[2,1,3] - X[2,3,3] - X[2,4,3]
   - X[2,5,3] - X[2,6,3] + X[3,2,3] + X[4,2,3] + X[5,2,3] + X[6,2,3] = 0
 R218: X[0,3,0] + X[1,3,0] + X[2,3,0] - X[3,0,0] - X[3,1,0] - X[3,2,0]
   - X[3,4,0] - X[3,5,0] - X[3,6,0] + X[4,3,0] + X[5,3,0] + X[6,3,0] = 0
 R219: X[0,3,1] + X[1,3,1] + X[2,3,1] - X[3,0,1] - X[3,1,1] - X[3,2,1]
   - X[3,4,1] - X[3,5,1] - X[3,6,1] + X[4,3,1] + X[5,3,1] + X[6,3,1] = 0
 R220: X[0,3,2] + X[1,3,2] + X[2,3,2] - X[3,0,2] - X[3,1,2] - X[3,2,2]
   - X[3,4,2] - X[3,5,2] - X[3,6,2] + X[4,3,2] + X[5,3,2] + X[6,3,2] = 0
 R221: X[0,3,3] + X[1,3,3] + X[2,3,3] - X[3,0,3] - X[3,1,3] - X[3,2,3]
   - X[3,4,3] - X[3,5,3] - X[3,6,3] + X[4,3,3] + X[5,3,3] + X[6,3,3] = 0
 R222: X[0,4,0] + X[1,4,0] + X[2,4,0] + X[3,4,0] - X[4,0,0] - X[4,1,0]
   - X[4,2,0] - X[4,3,0] - X[4,5,0] - X[4,6,0] + X[5,4,0] + X[6,4,0] = 0
 R223: X[0,4,1] + X[1,4,1] + X[2,4,1] + X[3,4,1] - X[4,0,1] - X[4,1,1]
   - X[4,2,1] - X[4,3,1] - X[4,5,1] - X[4,6,1] + X[5,4,1] + X[6,4,1] = 0
 R224: X[0,4,2] + X[1,4,2] + X[2,4,2] + X[3,4,2] - X[4,0,2] - X[4,1,2]
   - X[4,2,2] - X[4,3,2] - X[4,5,2] - X[4,6,2] + X[5,4,2] + X[6,4,2] = 0
 R225: X[0,4,3] + X[1,4,3] + X[2,4,3] + X[3,4,3] - X[4,0,3] - X[4,1,3]
   - X[4,2,3] - X[4,3,3] - X[4,5,3] - X[4,6,3] + X[5,4,3] + X[6,4,3] = 0
 R226: X[0,5,0] + X[1,5,0] + X[2,5,0] + X[3,5,0] + X[4,5,0] - X[5,0,0]
   - X[5,1,0] - X[5,2,0] - X[5,3,0] - X[5,4,0] - X[5,6,0] + X[6,5,0] = 0
 R227: X[0,5,1] + X[1,5,1] + X[2,5,1] + X[3,5,1] + X[4,5,1] - X[5,0,1]
   - X[5,1,1] - X[5,2,1] - X[5,3,1] - X[5,4,1] - X[5,6,1] + X[6,5,1] = 0
 R228: X[0,5,2] + X[1,5,2] + X[2,5,2] + X[3,5,2] + X[4,5,2] - X[5,0,2]
   - X[5,1,2] - X[5,2,2] - X[5,3,2] - X[5,4,2] - X[5,6,2] + X[6,5,2] = 0
 R229: X[0,5,3] + X[1,5,3] + X[2,5,3] + X[3,5,3] + X[4,5,3] - X[5,0,3]
   - X[5,1,3] - X[5,2,3] - X[5,3,3] - X[5,4,3] - X[5,6,3] + X[6,5,3] = 0
 R230: X[0,6,0] + X[1,6,0] + X[2,6,0] + X[3,6,0] + X[4,6,0] + X[5,6,0]
   - X[6,0,0] - X[6,1,0] - X[6,2,0] - X[6,3,0] - X[6,4,0] - X[6,5,0] = 0
 R231: X[0,6,1] + X[1,6,1] + X[2,6,1] + X[3,6,1] + X[4,6,1] + X[5,6,1]
   - X[6,0,1] - X[6,1,1] - X[6,2,1] - X[6,3,1] - X[6,4,1] - X[6,5,1] = 0
 R232: X[0,6,2] + X[1,6,2] + X[2,6,2] + X[3,6,2] + X[4,6,2] + X[5,6,2]
   - X[6,0,2] - X[6,1,2] - X[6,2,2] - X[6,3,2] - X[6,4,2] - X[6,5,2] = 0
 R233: X[0,6,3] + X[1,6,3] + X[2,6,3] + X[3,6,3] + X[4,6,3] + X[5,6,3]
   - X[6,0,3] - X[6,1,3] - X[6,2,3] - X[6,3,3] - X[6,4,3] - X[6,5,3] = 0
 R234: X[0,1,0] + X[1,1,0] + X[2,1,0] + X[3,1,0] + X[4,1,0] + X[5,1,0]
   + X[6,1,0] - Z[1,0] = 0
 R235: X[0,1,1] + X[1,1,1] + X[2,1,1] + X[3,1,1] + X[4,1,1] + X[5,1,1]
   + X[6,1,1] - Z[1,1] = 0
 R236: X[0,1,2] + X[1,1,2] + X[2,1,2] + X[3,1,2] + X[4,1,2] + X[5,1,2]
   + X[6,1,2] - Z[1,2] = 0
 R237: X[0,1,3] + X[1,1,3] + X[2,1,3] + X[3,1,3] + X[4,1,3] + X[5,1,3]
   + X[6,1,3] - Z[1,3] = 0
 R238: X[0,2,0] + X[1,2,0] + X[2,2,0] + X[3,2,0] + X[4,2,0] + X[5,2,0]
   + X[6,2,0] - Z[2,0] = 0
 R239: X[0,2,1] + X[1,2,1] + X[2,2,1] + X[3,2,1] + X[4,2,1] + X[5,2,1]
   + X[6,2,1] - Z[2,1] = 0
 R240: X[0,2,2] + X[1,2,2] + X[2,2,2] + X[3,2,2] + X[4,2,2] + X[5,2,2]
   + X[6,2,2] - Z[2,2] = 0
 R241: X[0,2,3] + X[1,2,3] + X[2,2,3] + X[3,2,3] + X[4,2,3] + X[5,2,3]
   + X[6,2,3] - Z[2,3] = 0
 R242: X[0,3,0] + X[1,3,0] + X[2,3,0] + X[3,3,0] + X[4,3,0] + X[5,3,0]
   + X[6,3,0] - Z[3,0] = 0
 R243: X[0,3,1] + X[1,3,1] + X[2,3,1] + X[3,3,1] + X[4,3,1] + X[5,3,1]
   + X[6,3,1] - Z[3,1] = 0
 R244: X[0,3,2] + X[1,3,2] + X[2,3,2] + X[3,3,2] + X[4,3,2] + X[5,3,2]
   + X[6,3,2] - Z[3,2] = 0
 R245: X[0,3,3] + X[1,3,3] + X[2,3,3] + X[3,3,3] + X[4,3,3] + X[5,3,3]
   + X[6,3,3] - Z[3,3] = 0
 R246: X[0,4,0] + X[1,4,0] + X[2,4,0] + X[3,4,0] + X[4,4,0] + X[5,4,0]
   + X[6,4,0] - Z[4,0] = 0
 R247: X[0,4,1] + X[1,4,1] + X[2,4,1] + X[3,4,1] + X[4,4,1] + X[5,4,1]
   + X[6,4,1] - Z[4,1] = 0
 R248: X[0,4,2] + X[1,4,2] + X[2,4,2] + X[3,4,2] + X[4,4,2] + X[5,4,2]
   + X[6,4,2] - Z[4,2] = 0
 R249: X[0,4,3] + X[1,4,3] + X[2,4,3] + X[3,4,3] + X[4,4,3] + X[5,4,3]
   + X[6,4,3] - Z[4,3] = 0
 R250: X[0,5,0] + X[1,5,0] + X[2,5,0] + X[3,5,0] + X[4,5,0] + X[5,5,0]
   + X[6,5,0] - Z[5,0] = 0
 R251: X[0,5,1] + X[1,5,1] + X[2,5,1] + X[3,5,1] + X[4,5,1] + X[5,5,1]
   + X[6,5,1] - Z[5,1] = 0
 R252: X[0,5,2] + X[1,5,2] + X[2,5,2] + X[3,5,2] + X[4,5,2] + X[5,5,2]
   + X[6,5,2] - Z[5,2] = 0
 R253: X[0,5,3] + X[1,5,3] + X[2,5,3] + X[3,5,3] + X[4,5,3] + X[5,5,3]
   + X[6,5,3] - Z[5,3] = 0
 R254: X[0,6,0] + X[1,6,0] + X[2,6,0] + X[3,6,0] + X[4,6,0] + X[5,6,0]
   + X[6,6,0] - Z[6,0] = 0
 R255: X[0,6,1] + X[1,6,1] + X[2,6,1] + X[3,6,1] + X[4,6,1] + X[5,6,1]
   + X[6,6,1] - Z[6,1] = 0
 R256: X[0,6,2] + X[1,6,2] + X[2,6,2] + X[3,6,2] + X[4,6,2] + X[5,6,2]
   + X[6,6,2] - Z[6,2] = 0
 R257: X[0,6,3] + X[1,6,3] + X[2,6,3] + X[3,6,3] + X[4,6,3] + X[5,6,3]
   + X[6,6,3] - Z[6,3] = 0
Bounds
Binaries
 X[0,0,0] X[0,0,1] X[0,0,2] X[0,0,3] X[0,1,0] X[0,1,1] X[0,1,2] X[0,1,3]
 X[0,2,0] X[0,2,1] X[0,2,2] X[0,2,3] X[0,3,0] X[0,3,1] X[0,3,2] X[0,3,3]
 X[0,4,0] X[0,4,1] X[0,4,2] X[0,4,3] X[0,5,0] X[0,5,1] X[0,5,2] X[0,5,3]
 X[0,6,0] X[0,6,1] X[0,6,2] X[0,6,3] X[1,0,0] X[1,0,1] X[1,0,2] X[1,0,3]
 X[1,1,0] X[1,1,1] X[1,1,2] X[1,1,3] X[1,2,0] X[1,2,1] X[1,2,2] X[1,2,3]
 X[1,3,0] X[1,3,1] X[1,3,2] X[1,3,3] X[1,4,0] X[1,4,1] X[1,4,2] X[1,4,3]
 X[1,5,0] X[1,5,1] X[1,5,2] X[1,5,3] X[1,6,0] X[1,6,1] X[1,6,2] X[1,6,3]
 X[2,0,0] X[2,0,1] X[2,0,2] X[2,0,3] X[2,1,0] X[2,1,1] X[2,1,2] X[2,1,3]
 X[2,2,0] X[2,2,1] X[2,2,2] X[2,2,3] X[2,3,0] X[2,3,1] X[2,3,2] X[2,3,3]
 X[2,4,0] X[2,4,1] X[2,4,2] X[2,4,3] X[2,5,0] X[2,5,1] X[2,5,2] X[2,5,3]
 X[2,6,0] X[2,6,1] X[2,6,2] X[2,6,3] X[3,0,0] X[3,0,1] X[3,0,2] X[3,0,3]
 X[3,1,0] X[3,1,1] X[3,1,2] X[3,1,3] X[3,2,0] X[3,2,1] X[3,2,2] X[3,2,3]
 X[3,3,0] X[3,3,1] X[3,3,2] X[3,3,3] X[3,4,0] X[3,4,1] X[3,4,2] X[3,4,3]
 X[3,5,0] X[3,5,1] X[3,5,2] X[3,5,3] X[3,6,0] X[3,6,1] X[3,6,2] X[3,6,3]
 X[4,0,0] X[4,0,1] X[4,0,2] X[4,0,3] X[4,1,0] X[4,1,1] X[4,1,2] X[4,1,3]
 X[4,2,0] X[4,2,1] X[4,2,2] X[4,2,3] X[4,3,0] X[4,3,1] X[4,3,2] X[4,3,3]
 X[4,4,0] X[4,4,1] X[4,4,2] X[4,4,3] X[4,5,0] X[4,5,1] X[4,5,2] X[4,5,3]
 X[4,6,0] X[4,6,1] X[4,6,2] X[4,6,3] X[5,0,0] X[5,0,1] X[5,0,2] X[5,0,3]
 X[5,1,0] X[5,1,1] X[5,1,2] X[5,1,3] X[5,2,0] X[5,2,1] X[5,2,2] X[5,2,3]
 X[5,3,0] X[5,3,1] X[5,3,2] X[5,3,3] X[5,4,0] X[5,4,1] X[5,4,2] X[5,4,3]
 X[5,5,0] X[5,5,1] X[5,5,2] X[5,5,3] X[5,6,0] X[5,6,1] X[5,6,2] X[5,6,3]
 X[6,0,0] X[6,0,1] X[6,0,2] X[6,0,3] X[6,1,0] X[6,1,1] X[6,1,2] X[6,1,3]
 X[6,2,0] X[6,2,1] X[6,2,2] X[6,2,3] X[6,3,0] X[6,3,1] X[6,3,2] X[6,3,3]
 X[6,4,0] X[6,4,1] X[6,4,2] X[6,4,3] X[6,5,0] X[6,5,1] X[6,5,2] X[6,5,3]
 X[6,6,0] X[6,6,1] X[6,6,2] X[6,6,3] Z[0,0] Z[0,1] Z[0,2] Z[0,3] Z[1,0]
 Z[1,1] Z[1,2] Z[1,3] Z[2,0] Z[2,1] Z[2,2] Z[2,3] Z[3,0] Z[3,1] Z[3,2]
 Z[3,3] Z[4,0] Z[4,1] Z[4,2] Z[4,3] Z[5,0] Z[5,1] Z[5,2] Z[5,3] Z[6,0]
 Z[6,1] Z[6,2] Z[6,3]
End
